NAME : XML100_2241_26
DIMENSION : 101
NB_CLUSTERS : 7
CLUSTERING_ALG : DBSCAN
CLUSTERING_PARAMS : eps(134), minSamples(3)
CLUSTERS
1 0
2 1 27 33 35 36 47 49 62 66 70 78 81 82
3 2 6 8 16 24 44 53 65 67 71 85 87 93 97 98
4 3 4 5 12 13 18 21 26 30 57 61 73 75 79 80 84 86 94 95 96
5 7 9 11 20 22 25 28 29 32 38 39 42 43 45 46 52 54 55 56 59 68 69 72 76 77 83 88 90 92 100
6 10 14 15 17 19 23 34 40 41 48 50 51 58 60 63 64 74 89 91 99
7 31 37
EOF